124
10000000
211394
772735
176830
767327
1813970
2103398
384518
283729
202509
1152739
1236665
784351
1441708
1116150
2285176
1295826
818185
576143
1905159
1648552
37604
2257979
58234
1844556
952782
648795
1414140
2433035
1182252
1547178
2390590
1952151
385855
1071763
2355612
284963
1909711
468912
100664
2448499
1228545
1261002
1782506
1568805
44626
585141
243408
850399
842278
2443511
801123
1424487
2408814
2483478
397447
1600574
2019939
2153514
177915
1507432
891467
1265647
753612
1941132
317004
907447
942044
2427780
574581
1630174
640107
1613107
1350013
1389500
2161168
2120061
1493505
1087802
1155791
744
612888
1893096
564593
321519
5299
2006163
887281
1969239
1374770
1219152
1119626
1927786
185466
1718143
308130
2493764
1231001
368249
2306625
1322772
277348
67175
429676
1085875
2343855
1480479
1858997
88572
1894265
1962489
1622354
1144082
731328
326003
759273
2207174
1647674
1432698
2033159
2496090
78856
669432
1914361
403254
